SCIP version 5.0.0 [precision: 8 byte] [memory: block] [mode: optimized] [LP solver: NONE] [GitHash: 3bbd232]
Copyright (C) 2002-2017 Konrad-Zuse-Zentrum fuer Informationstechnik Berlin (ZIB)

External codes: 
  Readline EditLine w  GNU library for command line editing (gnu.org/s/readline)
  CppAD 20160000.1     Algorithmic Differentiation of C++ algorithms developed by B. Bell (www.coin-or.org/CppAD)
  ZLIB 1.2.5           General purpose compression library by J. Gailly and M. Adler (zlib.net)
  GMP 6.1.2            GNU Multiple Precision Arithmetic Library developed by T. Granlund (gmplib.org)

user parameter file <scip.set> not found - using default parameters

read problem <../../Split_data/output/biodeg/7/4_sample_biodeg.logreg>
============

File name	:	../../Split_data/output/biodeg/7/4_sample_biodeg.logreg
Problem name 	:	4_sample_biodeg
Number of data	:	844
Number of var	:	41
The given data has linear dependence
1 sets of column vector are linearly dependent:
{ 19}, 

[dim=1] time: 0.029684
[dim=2] time: 0.063731
[dim=3] time: 0.088393
[dim=4] time: 0.116938
[dim=5] time: 0.140045
[dim=6] time: 0.163169
[dim=7] time: 0.186943
[dim=8] time: 0.20925
[dim=9] time: 0.231427
[dim=10] time: 0.254707
[dim=11] time: 0.276241
[dim=12] time: 0.302601
[dim=13] time: 0.325544
[dim=14] time: 0.345611
[dim=15] time: 0.366633
[dim=16] time: 0.388806
[dim=17] time: 0.408856
[dim=18] time: 0.427621
[dim=19] time: 0.442342
[dim=20] time: 0.459254
[dim=21] time: 0.477449
[dim=22] time: 0.49258
[dim=23] time: 0.512386
[dim=24] time: 0.547778
[dim=25] time: 0.559582
[dim=26] Time of forward = 0.571048sec.
AIC: 531.234
k: 25

[dim=40] time: 0.18318
[dim=39] time: 0.269116
[dim=38] time: 0.320224
[dim=37] time: 0.376257
[dim=36] time: 0.409385
[dim=35] time: 0.454288
[dim=34] time: 0.521987
[dim=33] time: 0.584665
[dim=32] time: 0.661292
[dim=31] time: 0.736734
[dim=30] time: 0.775604
[dim=29] time: 0.829968
[dim=28] time: 0.882293
[dim=27] time: 0.914684
[dim=26] time: 0.95846
[dim=25] time: 1.00512
[dim=24] Time of backward = 1.04353sec.
AIC: 531.238
k: 25
